WARNING: for repeatability, setting FPU to use double precision
============================[ Problem Statistics ]=============================
|                                                                             |
|  Number of variables:        158736                                         |
|  Number of clauses:          372445                                         |
|  Parse time:                   0.09 s                                       |
|                                                                             |
c ============================[ Search Statistics ]==============================
c | Conflicts |          ORIGINAL         |          LEARNT          | Progress |
c |           |    Vars  Clauses Literals |    Limit  Clauses Lit/Cl |          |
c ===============================================================================
c Switched to VSIDS.
c Switched to LRB.
c Switched to VSIDS.
c Switched to LRB.
c Switched to VSIDS.
c Switched to LRB.
c Switched to VSIDS.
c Switched to LRB.
c Switched to VSIDS.
c Switched to LRB.
c Switched to VSIDS.
c Switched to LRB.
c Switched to VSIDS.
c Switched to LRB.
c Switched to VSIDS.
c Switched to LRB.
c Switched to VSIDS.
c Switched to LRB.
c Switched to VSIDS.
c Switched to LRB.
c Switched to VSIDS.
c Switched to LRB.
c Switched to VSIDS.
c Switched to LRB.
c Switched to VSIDS.
c Switched to LRB.
c Switched to VSIDS.
c Switched to LRB.
c Switched to VSIDS.
c Switched to LRB.
c Switched to VSIDS.
c ===============================================================================
restarts                  : 81960
conflicts                 : 11760762       (3320 /sec)
decisions                 : 73698528       (0.00 % random) (20807 /sec)
propagations              : 5697000100     (1608412 /sec)
conflict literals         : 1330980891     (11.37 % deleted)

conflicts w/ DIP found    : 8586962        (73.01 % of conflicts)
conflicts w/ dangerous DIP: 0              (0.00 % of conflicts)
conflicts w/ DIP-learning : 48669          (0.41 % of conflicts)
decisions on ext vars     : 103053         (0.14 % of decisions)
total ext vars            : 5604        
tried delete ext vars     : 1           
deleted ext vars          : 1           
max ext vars              : 5603        

Memory used               : 885.00 MB
CPU time                  : 3542 s
DIP computation time      : 144.108 s (4.07 % of total time)
ER_sel time               : 19.0686 s
ER_add time               : 0.031631 s
ER_delC time              : 0 s
ER_delV time              : 0.000788 s
ER_sub time               : 23.8983 s
ER_stat time              : 0 s

INDETERMINATE
